p cnf 401 1698
-2 0
-3 0
-4 0
-5 0
1 0
36 6 0
-36 -6 0
6 7 8 9 10 0
-6 255 0
-7 256 0
-255 256 0
-255 -7 0
-8 257 0
-256 257 0
-256 -8 0
-9 258 0
-257 258 0
-257 -9 0
-258 -10 0
-6 1 11 0
-6 1 41 0
-6 11 41 0
-7 2 12 0
-7 2 42 0
-7 12 42 0
-8 3 13 0
-8 3 43 0
-8 13 43 0
-9 4 14 0
-9 4 44 0
-9 14 44 0
-10 5 15 0
-10 5 45 0
-10 15 45 0
-6 -1 -11 -41 0
-7 -2 -12 -42 0
-8 -3 -13 -43 0
-9 -4 -14 -44 0
-10 -5 -15 -45 0
-11 0
-13 0
-14 0
-15 0
12 0
7 17 47 0
-7 -17 0
-7 -47 0
-17 -47 0
-17 0
-18 0
-19 0
-20 0
16 0
11 21 51 0
-11 -21 0
-11 -51 0
-21 -51 0
21 22 23 24 25 0
-21 267 0
-22 268 0
-267 268 0
-267 -22 0
-23 269 0
-268 269 0
-268 -23 0
-24 270 0
-269 270 0
-269 -24 0
-270 -25 0
-21 16 26 0
-21 16 56 0
-21 26 56 0
-22 17 27 0
-22 17 57 0
-22 27 57 0
-23 18 28 0
-23 18 58 0
-23 28 58 0
-24 19 29 0
-24 19 59 0
-24 29 59 0
-25 20 30 0
-25 20 60 0
-25 30 60 0
-21 -16 -26 -56 0
-22 -17 -27 -57 0
-23 -18 -28 -58 0
-24 -19 -29 -59 0
-25 -20 -30 -60 0
26 27 28 29 30 0
-26 271 0
-27 272 0
-271 272 0
-271 -27 0
-28 273 0
-272 273 0
-272 -28 0
-29 274 0
-273 274 0
-273 -29 0
-274 -30 0
-26 21 31 0
-26 21 61 0
-26 31 61 0
-27 22 32 0
-27 22 62 0
-27 32 62 0
-28 23 33 0
-28 23 63 0
-28 33 63 0
-29 24 34 0
-29 24 64 0
-29 34 64 0
-30 25 35 0
-30 25 65 0
-30 35 65 0
-26 -21 -31 -61 0
-27 -22 -32 -62 0
-28 -23 -33 -63 0
-29 -24 -34 -64 0
-30 -25 -35 -65 0
31 32 33 34 35 0
-31 275 0
-32 276 0
-275 276 0
-275 -32 0
-33 277 0
-276 277 0
-276 -33 0
-34 278 0
-277 278 0
-277 -34 0
-278 -35 0
-31 66 0
-31 26 0
-32 67 0
-32 27 0
-33 68 0
-33 28 0
-34 69 0
-34 29 0
-35 70 0
-35 30 0
36 37 38 39 40 0
-36 279 0
-37 280 0
-279 280 0
-279 -37 0
-38 281 0
-280 281 0
-280 -38 0
-39 282 0
-281 282 0
-281 -39 0
-282 -40 0
-36 71 41 0
-36 71 1 0
-36 41 1 0
-37 72 42 0
-37 72 2 0
-37 42 2 0
-38 73 43 0
-38 73 3 0
-38 43 3 0
-39 74 44 0
-39 74 4 0
-39 44 4 0
-40 75 45 0
-40 75 5 0
-40 45 5 0
-36 -71 -41 -1 0
-37 -72 -42 -2 0
-38 -73 -43 -3 0
-39 -74 -44 -4 0
-40 -75 -45 -5 0
41 42 43 44 45 0
-41 283 0
-42 284 0
-283 284 0
-283 -42 0
-43 285 0
-284 285 0
-284 -43 0
-44 286 0
-285 286 0
-285 -44 0
-286 -45 0
-41 76 46 6 0
-41 76 46 36 0
-41 76 6 36 0
-41 46 6 36 0
-42 77 47 7 0
-42 77 47 37 0
-42 77 7 37 0
-42 47 7 37 0
-43 78 48 8 0
-43 78 48 38 0
-43 78 8 38 0
-43 48 8 38 0
-44 79 49 9 0
-44 79 49 39 0
-44 79 9 39 0
-44 49 9 39 0
-45 80 50 10 0
-45 80 50 40 0
-45 80 10 40 0
-45 50 10 40 0
-41 -76 -46 -6 0
-41 -76 -46 -36 0
-41 -76 -6 -36 0
-41 -46 -6 -36 0
-42 -77 -47 -7 0
-42 -77 -47 -37 0
-42 -77 -7 -37 0
-42 -47 -7 -37 0
-43 -78 -48 -8 0
-43 -78 -48 -38 0
-43 -78 -8 -38 0
-43 -48 -8 -38 0
-44 -79 -49 -9 0
-44 -79 -49 -39 0
-44 -79 -9 -39 0
-44 -49 -9 -39 0
-45 -80 -50 -10 0
-45 -80 -50 -40 0
-45 -80 -10 -40 0
-45 -50 -10 -40 0
-46 0
-47 0
-49 0
-50 0
48 0
83 53 13 43 0
-83 -53 0
-83 -13 0
-83 -43 0
-53 -13 0
-53 -43 0
-13 -43 0
51 52 53 54 55 0
-51 291 0
-52 292 0
-291 292 0
-291 -52 0
-53 293 0
-292 293 0
-292 -53 0
-54 294 0
-293 294 0
-293 -54 0
-294 -55 0
-51 86 56 16 0
-51 86 56 46 0
-51 86 16 46 0
-51 56 16 46 0
-52 87 57 17 0
-52 87 57 47 0
-52 87 17 47 0
-52 57 17 47 0
-53 88 58 18 0
-53 88 58 48 0
-53 88 18 48 0
-53 58 18 48 0
-54 89 59 19 0
-54 89 59 49 0
-54 89 19 49 0
-54 59 19 49 0
-55 90 60 20 0
-55 90 60 50 0
-55 90 20 50 0
-55 60 20 50 0
-51 -86 -56 -16 0
-51 -86 -56 -46 0
-51 -86 -16 -46 0
-51 -56 -16 -46 0
-52 -87 -57 -17 0
-52 -87 -57 -47 0
-52 -87 -17 -47 0
-52 -57 -17 -47 0
-53 -88 -58 -18 0
-53 -88 -58 -48 0
-53 -88 -18 -48 0
-53 -58 -18 -48 0
-54 -89 -59 -19 0
-54 -89 -59 -49 0
-54 -89 -19 -49 0
-54 -59 -19 -49 0
-55 -90 -60 -20 0
-55 -90 -60 -50 0
-55 -90 -20 -50 0
-55 -60 -20 -50 0
56 57 58 59 60 0
-56 295 0
-57 296 0
-295 296 0
-295 -57 0
-58 297 0
-296 297 0
-296 -58 0
-59 298 0
-297 298 0
-297 -59 0
-298 -60 0
-56 91 61 21 0
-56 91 61 51 0
-56 91 21 51 0
-56 61 21 51 0
-57 92 62 22 0
-57 92 62 52 0
-57 92 22 52 0
-57 62 22 52 0
-58 93 63 23 0
-58 93 63 53 0
-58 93 23 53 0
-58 63 23 53 0
-59 94 64 24 0
-59 94 64 54 0
-59 94 24 54 0
-59 64 24 54 0
-60 95 65 25 0
-60 95 65 55 0
-60 95 25 55 0
-60 65 25 55 0
-56 -91 -61 -21 0
-56 -91 -61 -51 0
-56 -91 -21 -51 0
-56 -61 -21 -51 0
-57 -92 -62 -22 0
-57 -92 -62 -52 0
-57 -92 -22 -52 0
-57 -62 -22 -52 0
-58 -93 -63 -23 0
-58 -93 -63 -53 0
-58 -93 -23 -53 0
-58 -63 -23 -53 0
-59 -94 -64 -24 0
-59 -94 -64 -54 0
-59 -94 -24 -54 0
-59 -64 -24 -54 0
-60 -95 -65 -25 0
-60 -95 -65 -55 0
-60 -95 -25 -55 0
-60 -65 -25 -55 0
61 62 63 64 65 0
-61 299 0
-62 300 0
-299 300 0
-299 -62 0
-63 301 0
-300 301 0
-300 -63 0
-64 302 0
-301 302 0
-301 -64 0
-302 -65 0
-61 96 66 26 0
-61 96 66 56 0
-61 96 26 56 0
-61 66 26 56 0
-62 97 67 27 0
-62 97 67 57 0
-62 97 27 57 0
-62 67 27 57 0
-63 98 68 28 0
-63 98 68 58 0
-63 98 28 58 0
-63 68 28 58 0
-64 99 69 29 0
-64 99 69 59 0
-64 99 29 59 0
-64 69 29 59 0
-65 100 70 30 0
-65 100 70 60 0
-65 100 30 60 0
-65 70 30 60 0
-61 -96 -66 -26 0
-61 -96 -66 -56 0
-61 -96 -26 -56 0
-61 -66 -26 -56 0
-62 -97 -67 -27 0
-62 -97 -67 -57 0
-62 -97 -27 -57 0
-62 -67 -27 -57 0
-63 -98 -68 -28 0
-63 -98 -68 -58 0
-63 -98 -28 -58 0
-63 -68 -28 -58 0
-64 -99 -69 -29 0
-64 -99 -69 -59 0
-64 -99 -29 -59 0
-64 -69 -29 -59 0
-65 -100 -70 -30 0
-65 -100 -70 -60 0
-65 -100 -30 -60 0
-65 -70 -30 -60 0
66 67 68 69 70 0
-66 303 0
-67 304 0
-303 304 0
-303 -67 0
-68 305 0
-304 305 0
-304 -68 0
-69 306 0
-305 306 0
-305 -69 0
-306 -70 0
-66 101 61 0
-66 101 31 0
-66 61 31 0
-67 102 62 0
-67 102 32 0
-67 62 32 0
-68 103 63 0
-68 103 33 0
-68 63 33 0
-69 104 64 0
-69 104 34 0
-69 64 34 0
-70 105 65 0
-70 105 35 0
-70 65 35 0
-66 -101 -61 -31 0
-67 -102 -62 -32 0
-68 -103 -63 -33 0
-69 -104 -64 -34 0
-70 -105 -65 -35 0
71 72 73 74 75 0
-71 307 0
-72 308 0
-307 308 0
-307 -72 0
-73 309 0
-308 309 0
-308 -73 0
-74 310 0
-309 310 0
-309 -74 0
-310 -75 0
-71 106 76 0
-71 106 36 0
-71 76 36 0
-72 107 77 0
-72 107 37 0
-72 77 37 0
-73 108 78 0
-73 108 38 0
-73 78 38 0
-74 109 79 0
-74 109 39 0
-74 79 39 0
-75 110 80 0
-75 110 40 0
-75 80 40 0
-71 -106 -76 -36 0
-72 -107 -77 -37 0
-73 -108 -78 -38 0
-74 -109 -79 -39 0
-75 -110 -80 -40 0
-76 0
-78 0
-79 0
-80 0
77 0
112 82 42 72 0
-112 -82 0
-112 -42 0
-112 -72 0
-82 -42 0
-82 -72 0
-42 -72 0
81 82 83 84 85 0
-81 315 0
-82 316 0
-315 316 0
-315 -82 0
-83 317 0
-316 317 0
-316 -83 0
-84 318 0
-317 318 0
-317 -84 0
-318 -85 0
-81 116 86 46 0
-81 116 86 76 0
-81 116 46 76 0
-81 86 46 76 0
-82 117 87 47 0
-82 117 87 77 0
-82 117 47 77 0
-82 87 47 77 0
-83 118 88 48 0
-83 118 88 78 0
-83 118 48 78 0
-83 88 48 78 0
-84 119 89 49 0
-84 119 89 79 0
-84 119 49 79 0
-84 89 49 79 0
-85 120 90 50 0
-85 120 90 80 0
-85 120 50 80 0
-85 90 50 80 0
-81 -116 -86 -46 0
-81 -116 -86 -76 0
-81 -116 -46 -76 0
-81 -86 -46 -76 0
-82 -117 -87 -47 0
-82 -117 -87 -77 0
-82 -117 -47 -77 0
-82 -87 -47 -77 0
-83 -118 -88 -48 0
-83 -118 -88 -78 0
-83 -118 -48 -78 0
-83 -88 -48 -78 0
-84 -119 -89 -49 0
-84 -119 -89 -79 0
-84 -119 -49 -79 0
-84 -89 -49 -79 0
-85 -120 -90 -50 0
-85 -120 -90 -80 0
-85 -120 -50 -80 0
-85 -90 -50 -80 0
86 87 88 89 90 0
-86 319 0
-87 320 0
-319 320 0
-319 -87 0
-88 321 0
-320 321 0
-320 -88 0
-89 322 0
-321 322 0
-321 -89 0
-322 -90 0
-86 121 91 51 0
-86 121 91 81 0
-86 121 51 81 0
-86 91 51 81 0
-87 122 92 52 0
-87 122 92 82 0
-87 122 52 82 0
-87 92 52 82 0
-88 123 93 53 0
-88 123 93 83 0
-88 123 53 83 0
-88 93 53 83 0
-89 124 94 54 0
-89 124 94 84 0
-89 124 54 84 0
-89 94 54 84 0
-90 125 95 55 0
-90 125 95 85 0
-90 125 55 85 0
-90 95 55 85 0
-86 -121 -91 -51 0
-86 -121 -91 -81 0
-86 -121 -51 -81 0
-86 -91 -51 -81 0
-87 -122 -92 -52 0
-87 -122 -92 -82 0
-87 -122 -52 -82 0
-87 -92 -52 -82 0
-88 -123 -93 -53 0
-88 -123 -93 -83 0
-88 -123 -53 -83 0
-88 -93 -53 -83 0
-89 -124 -94 -54 0
-89 -124 -94 -84 0
-89 -124 -54 -84 0
-89 -94 -54 -84 0
-90 -125 -95 -55 0
-90 -125 -95 -85 0
-90 -125 -55 -85 0
-90 -95 -55 -85 0
-91 0
-92 0
-93 0
-94 0
95 0
130 100 60 90 0
-130 -100 0
-130 -60 0
-130 -90 0
-100 -60 0
-100 -90 0
-60 -90 0
96 97 98 99 100 0
-96 327 0
-97 328 0
-327 328 0
-327 -97 0
-98 329 0
-328 329 0
-328 -98 0
-99 330 0
-329 330 0
-329 -99 0
-330 -100 0
-96 131 101 61 0
-96 131 101 91 0
-96 131 61 91 0
-96 101 61 91 0
-97 132 102 62 0
-97 132 102 92 0
-97 132 62 92 0
-97 102 62 92 0
-98 133 103 63 0
-98 133 103 93 0
-98 133 63 93 0
-98 103 63 93 0
-99 134 104 64 0
-99 134 104 94 0
-99 134 64 94 0
-99 104 64 94 0
-100 135 105 65 0
-100 135 105 95 0
-100 135 65 95 0
-100 105 65 95 0
-96 -131 -101 -61 0
-96 -131 -101 -91 0
-96 -131 -61 -91 0
-96 -101 -61 -91 0
-97 -132 -102 -62 0
-97 -132 -102 -92 0
-97 -132 -62 -92 0
-97 -102 -62 -92 0
-98 -133 -103 -63 0
-98 -133 -103 -93 0
-98 -133 -63 -93 0
-98 -103 -63 -93 0
-99 -134 -104 -64 0
-99 -134 -104 -94 0
-99 -134 -64 -94 0
-99 -104 -64 -94 0
-100 -135 -105 -65 0
-100 -135 -105 -95 0
-100 -135 -65 -95 0
-100 -105 -65 -95 0
101 102 103 104 105 0
-101 331 0
-102 332 0
-331 332 0
-331 -102 0
-103 333 0
-332 333 0
-332 -103 0
-104 334 0
-333 334 0
-333 -104 0
-334 -105 0
-101 136 96 0
-101 136 66 0
-101 96 66 0
-102 137 97 0
-102 137 67 0
-102 97 67 0
-103 138 98 0
-103 138 68 0
-103 98 68 0
-104 139 99 0
-104 139 69 0
-104 99 69 0
-105 140 100 0
-105 140 70 0
-105 100 70 0
-101 -136 -96 -66 0
-102 -137 -97 -67 0
-103 -138 -98 -68 0
-104 -139 -99 -69 0
-105 -140 -100 -70 0
106 107 108 109 110 0
-106 335 0
-107 336 0
-335 336 0
-335 -107 0
-108 337 0
-336 337 0
-336 -108 0
-109 338 0
-337 338 0
-337 -109 0
-338 -110 0
-106 141 111 0
-106 141 71 0
-106 111 71 0
-107 142 112 0
-107 142 72 0
-107 112 72 0
-108 143 113 0
-108 143 73 0
-108 113 73 0
-109 144 114 0
-109 144 74 0
-109 114 74 0
-110 145 115 0
-110 145 75 0
-110 115 75 0
-106 -141 -111 -71 0
-107 -142 -112 -72 0
-108 -143 -113 -73 0
-109 -144 -114 -74 0
-110 -145 -115 -75 0
-111 0
-112 0
-114 0
-115 0
113 0
148 118 78 108 0
-148 -118 0
-148 -78 0
-148 -108 0
-118 -78 0
-118 -108 0
-78 -108 0
116 117 118 119 120 0
-116 343 0
-117 344 0
-343 344 0
-343 -117 0
-118 345 0
-344 345 0
-344 -118 0
-119 346 0
-345 346 0
-345 -119 0
-346 -120 0
-116 151 121 81 0
-116 151 121 111 0
-116 151 81 111 0
-116 121 81 111 0
-117 152 122 82 0
-117 152 122 112 0
-117 152 82 112 0
-117 122 82 112 0
-118 153 123 83 0
-118 153 123 113 0
-118 153 83 113 0
-118 123 83 113 0
-119 154 124 84 0
-119 154 124 114 0
-119 154 84 114 0
-119 124 84 114 0
-120 155 125 85 0
-120 155 125 115 0
-120 155 85 115 0
-120 125 85 115 0
-116 -151 -121 -81 0
-116 -151 -121 -111 0
-116 -151 -81 -111 0
-116 -121 -81 -111 0
-117 -152 -122 -82 0
-117 -152 -122 -112 0
-117 -152 -82 -112 0
-117 -122 -82 -112 0
-118 -153 -123 -83 0
-118 -153 -123 -113 0
-118 -153 -83 -113 0
-118 -123 -83 -113 0
-119 -154 -124 -84 0
-119 -154 -124 -114 0
-119 -154 -84 -114 0
-119 -124 -84 -114 0
-120 -155 -125 -85 0
-120 -155 -125 -115 0
-120 -155 -85 -115 0
-120 -125 -85 -115 0
121 122 123 124 125 0
-121 347 0
-122 348 0
-347 348 0
-347 -122 0
-123 349 0
-348 349 0
-348 -123 0
-124 350 0
-349 350 0
-349 -124 0
-350 -125 0
-121 156 126 86 0
-121 156 126 116 0
-121 156 86 116 0
-121 126 86 116 0
-122 157 127 87 0
-122 157 127 117 0
-122 157 87 117 0
-122 127 87 117 0
-123 158 128 88 0
-123 158 128 118 0
-123 158 88 118 0
-123 128 88 118 0
-124 159 129 89 0
-124 159 129 119 0
-124 159 89 119 0
-124 129 89 119 0
-125 160 130 90 0
-125 160 130 120 0
-125 160 90 120 0
-125 130 90 120 0
-121 -156 -126 -86 0
-121 -156 -126 -116 0
-121 -156 -86 -116 0
-121 -126 -86 -116 0
-122 -157 -127 -87 0
-122 -157 -127 -117 0
-122 -157 -87 -117 0
-122 -127 -87 -117 0
-123 -158 -128 -88 0
-123 -158 -128 -118 0
-123 -158 -88 -118 0
-123 -128 -88 -118 0
-124 -159 -129 -89 0
-124 -159 -129 -119 0
-124 -159 -89 -119 0
-124 -129 -89 -119 0
-125 -160 -130 -90 0
-125 -160 -130 -120 0
-125 -160 -90 -120 0
-125 -130 -90 -120 0
126 127 128 129 130 0
-126 351 0
-127 352 0
-351 352 0
-351 -127 0
-128 353 0
-352 353 0
-352 -128 0
-129 354 0
-353 354 0
-353 -129 0
-354 -130 0
-126 161 131 91 0
-126 161 131 121 0
-126 161 91 121 0
-126 131 91 121 0
-127 162 132 92 0
-127 162 132 122 0
-127 162 92 122 0
-127 132 92 122 0
-128 163 133 93 0
-128 163 133 123 0
-128 163 93 123 0
-128 133 93 123 0
-129 164 134 94 0
-129 164 134 124 0
-129 164 94 124 0
-129 134 94 124 0
-130 165 135 95 0
-130 165 135 125 0
-130 165 95 125 0
-130 135 95 125 0
-126 -161 -131 -91 0
-126 -161 -131 -121 0
-126 -161 -91 -121 0
-126 -131 -91 -121 0
-127 -162 -132 -92 0
-127 -162 -132 -122 0
-127 -162 -92 -122 0
-127 -132 -92 -122 0
-128 -163 -133 -93 0
-128 -163 -133 -123 0
-128 -163 -93 -123 0
-128 -133 -93 -123 0
-129 -164 -134 -94 0
-129 -164 -134 -124 0
-129 -164 -94 -124 0
-129 -134 -94 -124 0
-130 -165 -135 -95 0
-130 -165 -135 -125 0
-130 -165 -95 -125 0
-130 -135 -95 -125 0
131 132 133 134 135 0
-131 355 0
-132 356 0
-355 356 0
-355 -132 0
-133 357 0
-356 357 0
-356 -133 0
-134 358 0
-357 358 0
-357 -134 0
-358 -135 0
-131 166 136 96 0
-131 166 136 126 0
-131 166 96 126 0
-131 136 96 126 0
-132 167 137 97 0
-132 167 137 127 0
-132 167 97 127 0
-132 137 97 127 0
-133 168 138 98 0
-133 168 138 128 0
-133 168 98 128 0
-133 138 98 128 0
-134 169 139 99 0
-134 169 139 129 0
-134 169 99 129 0
-134 139 99 129 0
-135 170 140 100 0
-135 170 140 130 0
-135 170 100 130 0
-135 140 100 130 0
-131 -166 -136 -96 0
-131 -166 -136 -126 0
-131 -166 -96 -126 0
-131 -136 -96 -126 0
-132 -167 -137 -97 0
-132 -167 -137 -127 0
-132 -167 -97 -127 0
-132 -137 -97 -127 0
-133 -168 -138 -98 0
-133 -168 -138 -128 0
-133 -168 -98 -128 0
-133 -138 -98 -128 0
-134 -169 -139 -99 0
-134 -169 -139 -129 0
-134 -169 -99 -129 0
-134 -139 -99 -129 0
-135 -170 -140 -100 0
-135 -170 -140 -130 0
-135 -170 -100 -130 0
-135 -140 -100 -130 0
136 137 138 139 140 0
-136 359 0
-137 360 0
-359 360 0
-359 -137 0
-138 361 0
-360 361 0
-360 -138 0
-139 362 0
-361 362 0
-361 -139 0
-362 -140 0
-136 171 131 0
-136 171 101 0
-136 131 101 0
-137 172 132 0
-137 172 102 0
-137 132 102 0
-138 173 133 0
-138 173 103 0
-138 133 103 0
-139 174 134 0
-139 174 104 0
-139 134 104 0
-140 175 135 0
-140 175 105 0
-140 135 105 0
-136 -171 -131 -101 0
-137 -172 -132 -102 0
-138 -173 -133 -103 0
-139 -174 -134 -104 0
-140 -175 -135 -105 0
141 142 143 144 145 0
-141 363 0
-142 364 0
-363 364 0
-363 -142 0
-143 365 0
-364 365 0
-364 -143 0
-144 366 0
-365 366 0
-365 -144 0
-366 -145 0
-141 176 146 0
-141 176 106 0
-141 146 106 0
-142 177 147 0
-142 177 107 0
-142 147 107 0
-143 178 148 0
-143 178 108 0
-143 148 108 0
-144 179 149 0
-144 179 109 0
-144 149 109 0
-145 180 150 0
-145 180 110 0
-145 150 110 0
-141 -176 -146 -106 0
-142 -177 -147 -107 0
-143 -178 -148 -108 0
-144 -179 -149 -109 0
-145 -180 -150 -110 0
-146 0
-147 0
-148 0
-150 0
149 0
184 154 114 144 0
-184 -154 0
-184 -114 0
-184 -144 0
-154 -114 0
-154 -144 0
-114 -144 0
151 152 153 154 155 0
-151 371 0
-152 372 0
-371 372 0
-371 -152 0
-153 373 0
-372 373 0
-372 -153 0
-154 374 0
-373 374 0
-373 -154 0
-374 -155 0
-151 186 156 116 0
-151 186 156 146 0
-151 186 116 146 0
-151 156 116 146 0
-152 187 157 117 0
-152 187 157 147 0
-152 187 117 147 0
-152 157 117 147 0
-153 188 158 118 0
-153 188 158 148 0
-153 188 118 148 0
-153 158 118 148 0
-154 189 159 119 0
-154 189 159 149 0
-154 189 119 149 0
-154 159 119 149 0
-155 190 160 120 0
-155 190 160 150 0
-155 190 120 150 0
-155 160 120 150 0
-151 -186 -156 -116 0
-151 -186 -156 -146 0
-151 -186 -116 -146 0
-151 -156 -116 -146 0
-152 -187 -157 -117 0
-152 -187 -157 -147 0
-152 -187 -117 -147 0
-152 -157 -117 -147 0
-153 -188 -158 -118 0
-153 -188 -158 -148 0
-153 -188 -118 -148 0
-153 -158 -118 -148 0
-154 -189 -159 -119 0
-154 -189 -159 -149 0
-154 -189 -119 -149 0
-154 -159 -119 -149 0
-155 -190 -160 -120 0
-155 -190 -160 -150 0
-155 -190 -120 -150 0
-155 -160 -120 -150 0
156 157 158 159 160 0
-156 375 0
-157 376 0
-375 376 0
-375 -157 0
-158 377 0
-376 377 0
-376 -158 0
-159 378 0
-377 378 0
-377 -159 0
-378 -160 0
-156 191 161 121 0
-156 191 161 151 0
-156 191 121 151 0
-156 161 121 151 0
-157 192 162 122 0
-157 192 162 152 0
-157 192 122 152 0
-157 162 122 152 0
-158 193 163 123 0
-158 193 163 153 0
-158 193 123 153 0
-158 163 123 153 0
-159 194 164 124 0
-159 194 164 154 0
-159 194 124 154 0
-159 164 124 154 0
-160 195 165 125 0
-160 195 165 155 0
-160 195 125 155 0
-160 165 125 155 0
-156 -191 -161 -121 0
-156 -191 -161 -151 0
-156 -191 -121 -151 0
-156 -161 -121 -151 0
-157 -192 -162 -122 0
-157 -192 -162 -152 0
-157 -192 -122 -152 0
-157 -162 -122 -152 0
-158 -193 -163 -123 0
-158 -193 -163 -153 0
-158 -193 -123 -153 0
-158 -163 -123 -153 0
-159 -194 -164 -124 0
-159 -194 -164 -154 0
-159 -194 -124 -154 0
-159 -164 -124 -154 0
-160 -195 -165 -125 0
-160 -195 -165 -155 0
-160 -195 -125 -155 0
-160 -165 -125 -155 0
161 162 163 164 165 0
-161 379 0
-162 380 0
-379 380 0
-379 -162 0
-163 381 0
-380 381 0
-380 -163 0
-164 382 0
-381 382 0
-381 -164 0
-382 -165 0
-161 196 166 126 0
-161 196 166 156 0
-161 196 126 156 0
-161 166 126 156 0
-162 197 167 127 0
-162 197 167 157 0
-162 197 127 157 0
-162 167 127 157 0
-163 198 168 128 0
-163 198 168 158 0
-163 198 128 158 0
-163 168 128 158 0
-164 199 169 129 0
-164 199 169 159 0
-164 199 129 159 0
-164 169 129 159 0
-165 200 170 130 0
-165 200 170 160 0
-165 200 130 160 0
-165 170 130 160 0
-161 -196 -166 -126 0
-161 -196 -166 -156 0
-161 -196 -126 -156 0
-161 -166 -126 -156 0
-162 -197 -167 -127 0
-162 -197 -167 -157 0
-162 -197 -127 -157 0
-162 -167 -127 -157 0
-163 -198 -168 -128 0
-163 -198 -168 -158 0
-163 -198 -128 -158 0
-163 -168 -128 -158 0
-164 -199 -169 -129 0
-164 -199 -169 -159 0
-164 -199 -129 -159 0
-164 -169 -129 -159 0
-165 -200 -170 -130 0
-165 -200 -170 -160 0
-165 -200 -130 -160 0
-165 -170 -130 -160 0
166 167 168 169 170 0
-166 383 0
-167 384 0
-383 384 0
-383 -167 0
-168 385 0
-384 385 0
-384 -168 0
-169 386 0
-385 386 0
-385 -169 0
-386 -170 0
-166 201 171 131 0
-166 201 171 161 0
-166 201 131 161 0
-166 171 131 161 0
-167 202 172 132 0
-167 202 172 162 0
-167 202 132 162 0
-167 172 132 162 0
-168 203 173 133 0
-168 203 173 163 0
-168 203 133 163 0
-168 173 133 163 0
-169 204 174 134 0
-169 204 174 164 0
-169 204 134 164 0
-169 174 134 164 0
-170 205 175 135 0
-170 205 175 165 0
-170 205 135 165 0
-170 175 135 165 0
-166 -201 -171 -131 0
-166 -201 -171 -161 0
-166 -201 -131 -161 0
-166 -171 -131 -161 0
-167 -202 -172 -132 0
-167 -202 -172 -162 0
-167 -202 -132 -162 0
-167 -172 -132 -162 0
-168 -203 -173 -133 0
-168 -203 -173 -163 0
-168 -203 -133 -163 0
-168 -173 -133 -163 0
-169 -204 -174 -134 0
-169 -204 -174 -164 0
-169 -204 -134 -164 0
-169 -174 -134 -164 0
-170 -205 -175 -135 0
-170 -205 -175 -165 0
-170 -205 -135 -165 0
-170 -175 -135 -165 0
171 172 173 174 175 0
-171 387 0
-172 388 0
-387 388 0
-387 -172 0
-173 389 0
-388 389 0
-388 -173 0
-174 390 0
-389 390 0
-389 -174 0
-390 -175 0
-171 206 166 0
-171 206 136 0
-171 166 136 0
-172 207 167 0
-172 207 137 0
-172 167 137 0
-173 208 168 0
-173 208 138 0
-173 168 138 0
-174 209 169 0
-174 209 139 0
-174 169 139 0
-175 210 170 0
-175 210 140 0
-175 170 140 0
-171 -206 -166 -136 0
-172 -207 -167 -137 0
-173 -208 -168 -138 0
-174 -209 -169 -139 0
-175 -210 -170 -140 0
176 177 178 179 180 0
-176 391 0
-177 392 0
-391 392 0
-391 -177 0
-178 393 0
-392 393 0
-392 -178 0
-179 394 0
-393 394 0
-393 -179 0
-394 -180 0
-176 211 181 0
-176 211 141 0
-176 181 141 0
-177 212 182 0
-177 212 142 0
-177 182 142 0
-178 213 183 0
-178 213 143 0
-178 183 143 0
-179 214 184 0
-179 214 144 0
-179 184 144 0
-180 215 185 0
-180 215 145 0
-180 185 145 0
-176 -211 -181 -141 0
-177 -212 -182 -142 0
-178 -213 -183 -143 0
-179 -214 -184 -144 0
-180 -215 -185 -145 0
-181 0
-182 0
-183 0
-184 0
185 0
220 190 150 180 0
-220 -190 0
-220 -150 0
-220 -180 0
-190 -150 0
-190 -180 0
-150 -180 0
186 187 188 189 190 0
-186 399 0
-187 400 0
-399 400 0
-399 -187 0
-188 401 0
-400 401 0
-400 -188 0
-189 402 0
-401 402 0
-401 -189 0
-402 -190 0
-186 221 191 151 0
-186 221 191 181 0
-186 221 151 181 0
-186 191 151 181 0
-187 222 192 152 0
-187 222 192 182 0
-187 222 152 182 0
-187 192 152 182 0
-188 223 193 153 0
-188 223 193 183 0
-188 223 153 183 0
-188 193 153 183 0
-189 224 194 154 0
-189 224 194 184 0
-189 224 154 184 0
-189 194 154 184 0
-190 225 195 155 0
-190 225 195 185 0
-190 225 155 185 0
-190 195 155 185 0
-186 -221 -191 -151 0
-186 -221 -191 -181 0
-186 -221 -151 -181 0
-186 -191 -151 -181 0
-187 -222 -192 -152 0
-187 -222 -192 -182 0
-187 -222 -152 -182 0
-187 -192 -152 -182 0
-188 -223 -193 -153 0
-188 -223 -193 -183 0
-188 -223 -153 -183 0
-188 -193 -153 -183 0
-189 -224 -194 -154 0
-189 -224 -194 -184 0
-189 -224 -154 -184 0
-189 -194 -154 -184 0
-190 -225 -195 -155 0
-190 -225 -195 -185 0
-190 -225 -155 -185 0
-190 -195 -155 -185 0
191 192 193 194 195 0
-191 403 0
-192 404 0
-403 404 0
-403 -192 0
-193 405 0
-404 405 0
-404 -193 0
-194 406 0
-405 406 0
-405 -194 0
-406 -195 0
-191 226 196 156 0
-191 226 196 186 0
-191 226 156 186 0
-191 196 156 186 0
-192 227 197 157 0
-192 227 197 187 0
-192 227 157 187 0
-192 197 157 187 0
-193 228 198 158 0
-193 228 198 188 0
-193 228 158 188 0
-193 198 158 188 0
-194 229 199 159 0
-194 229 199 189 0
-194 229 159 189 0
-194 199 159 189 0
-195 230 200 160 0
-195 230 200 190 0
-195 230 160 190 0
-195 200 160 190 0
-191 -226 -196 -156 0
-191 -226 -196 -186 0
-191 -226 -156 -186 0
-191 -196 -156 -186 0
-192 -227 -197 -157 0
-192 -227 -197 -187 0
-192 -227 -157 -187 0
-192 -197 -157 -187 0
-193 -228 -198 -158 0
-193 -228 -198 -188 0
-193 -228 -158 -188 0
-193 -198 -158 -188 0
-194 -229 -199 -159 0
-194 -229 -199 -189 0
-194 -229 -159 -189 0
-194 -199 -159 -189 0
-195 -230 -200 -160 0
-195 -230 -200 -190 0
-195 -230 -160 -190 0
-195 -200 -160 -190 0
196 197 198 199 200 0
-196 407 0
-197 408 0
-407 408 0
-407 -197 0
-198 409 0
-408 409 0
-408 -198 0
-199 410 0
-409 410 0
-409 -199 0
-410 -200 0
-196 231 201 161 0
-196 231 201 191 0
-196 231 161 191 0
-196 201 161 191 0
-197 232 202 162 0
-197 232 202 192 0
-197 232 162 192 0
-197 202 162 192 0
-198 233 203 163 0
-198 233 203 193 0
-198 233 163 193 0
-198 203 163 193 0
-199 234 204 164 0
-199 234 204 194 0
-199 234 164 194 0
-199 204 164 194 0
-200 235 205 165 0
-200 235 205 195 0
-200 235 165 195 0
-200 205 165 195 0
-196 -231 -201 -161 0
-196 -231 -201 -191 0
-196 -231 -161 -191 0
-196 -201 -161 -191 0
-197 -232 -202 -162 0
-197 -232 -202 -192 0
-197 -232 -162 -192 0
-197 -202 -162 -192 0
-198 -233 -203 -163 0
-198 -233 -203 -193 0
-198 -233 -163 -193 0
-198 -203 -163 -193 0
-199 -234 -204 -164 0
-199 -234 -204 -194 0
-199 -234 -164 -194 0
-199 -204 -164 -194 0
-200 -235 -205 -165 0
-200 -235 -205 -195 0
-200 -235 -165 -195 0
-200 -205 -165 -195 0
-201 0
-202 0
-203 0
-205 0
204 0
239 209 169 199 0
-239 -209 0
-239 -169 0
-239 -199 0
-209 -169 0
-209 -199 0
-169 -199 0
206 207 208 209 210 0
-206 415 0
-207 416 0
-415 416 0
-415 -207 0
-208 417 0
-416 417 0
-416 -208 0
-209 418 0
-417 418 0
-417 -209 0
-418 -210 0
-206 241 201 0
-206 241 171 0
-206 201 171 0
-207 242 202 0
-207 242 172 0
-207 202 172 0
-208 243 203 0
-208 243 173 0
-208 203 173 0
-209 244 204 0
-209 244 174 0
-209 204 174 0
-210 245 205 0
-210 245 175 0
-210 205 175 0
-206 -241 -201 -171 0
-207 -242 -202 -172 0
-208 -243 -203 -173 0
-209 -244 -204 -174 0
-210 -245 -205 -175 0
211 212 213 214 215 0
-211 419 0
-212 420 0
-419 420 0
-419 -212 0
-213 421 0
-420 421 0
-420 -213 0
-214 422 0
-421 422 0
-421 -214 0
-422 -215 0
-211 176 0
-211 216 0
-212 177 0
-212 217 0
-213 178 0
-213 218 0
-214 179 0
-214 219 0
-215 180 0
-215 220 0
216 217 218 219 220 0
-216 423 0
-217 424 0
-423 424 0
-423 -217 0
-218 425 0
-424 425 0
-424 -218 0
-219 426 0
-425 426 0
-425 -219 0
-426 -220 0
-216 181 221 0
-216 181 211 0
-216 221 211 0
-217 182 222 0
-217 182 212 0
-217 222 212 0
-218 183 223 0
-218 183 213 0
-218 223 213 0
-219 184 224 0
-219 184 214 0
-219 224 214 0
-220 185 225 0
-220 185 215 0
-220 225 215 0
-216 -181 -221 -211 0
-217 -182 -222 -212 0
-218 -183 -223 -213 0
-219 -184 -224 -214 0
-220 -185 -225 -215 0
221 222 223 224 225 0
-221 427 0
-222 428 0
-427 428 0
-427 -222 0
-223 429 0
-428 429 0
-428 -223 0
-224 430 0
-429 430 0
-429 -224 0
-430 -225 0
-221 186 226 0
-221 186 216 0
-221 226 216 0
-222 187 227 0
-222 187 217 0
-222 227 217 0
-223 188 228 0
-223 188 218 0
-223 228 218 0
-224 189 229 0
-224 189 219 0
-224 229 219 0
-225 190 230 0
-225 190 220 0
-225 230 220 0
-221 -186 -226 -216 0
-222 -187 -227 -217 0
-223 -188 -228 -218 0
-224 -189 -229 -219 0
-225 -190 -230 -220 0
226 227 228 229 230 0
-226 431 0
-227 432 0
-431 432 0
-431 -227 0
-228 433 0
-432 433 0
-432 -228 0
-229 434 0
-433 434 0
-433 -229 0
-434 -230 0
-226 191 231 0
-226 191 221 0
-226 231 221 0
-227 192 232 0
-227 192 222 0
-227 232 222 0
-228 193 233 0
-228 193 223 0
-228 233 223 0
-229 194 234 0
-229 194 224 0
-229 234 224 0
-230 195 235 0
-230 195 225 0
-230 235 225 0
-226 -191 -231 -221 0
-227 -192 -232 -222 0
-228 -193 -233 -223 0
-229 -194 -234 -224 0
-230 -195 -235 -225 0
231 232 233 234 235 0
-231 435 0
-232 436 0
-435 436 0
-435 -232 0
-233 437 0
-436 437 0
-436 -233 0
-234 438 0
-437 438 0
-437 -234 0
-438 -235 0
-231 196 236 0
-231 196 226 0
-231 236 226 0
-232 197 237 0
-232 197 227 0
-232 237 227 0
-233 198 238 0
-233 198 228 0
-233 238 228 0
-234 199 239 0
-234 199 229 0
-234 239 229 0
-235 200 240 0
-235 200 230 0
-235 240 230 0
-231 -196 -236 -226 0
-232 -197 -237 -227 0
-233 -198 -238 -228 0
-234 -199 -239 -229 0
-235 -200 -240 -230 0
236 237 238 239 240 0
-236 439 0
-237 440 0
-439 440 0
-439 -237 0
-238 441 0
-440 441 0
-440 -238 0
-239 442 0
-441 442 0
-441 -239 0
-442 -240 0
-236 201 241 0
-236 201 231 0
-236 241 231 0
-237 202 242 0
-237 202 232 0
-237 242 232 0
-238 203 243 0
-238 203 233 0
-238 243 233 0
-239 204 244 0
-239 204 234 0
-239 244 234 0
-240 205 245 0
-240 205 235 0
-240 245 235 0
-236 -201 -241 -231 0
-237 -202 -242 -232 0
-238 -203 -243 -233 0
-239 -204 -244 -234 0
-240 -205 -245 -235 0
241 242 243 244 245 0
-241 443 0
-242 444 0
-443 444 0
-443 -242 0
-243 445 0
-444 445 0
-444 -243 0
-244 446 0
-445 446 0
-445 -244 0
-446 -245 0
-241 206 0
-241 236 0
-242 207 0
-242 237 0
-243 208 0
-243 238 0
-244 209 0
-244 239 0
-245 210 0
-245 240 0
6 41 216 0
81 116 151 186 221 0
37 42 52 57 62 67 0
73 83 88 98 103 0
84 119 154 189 224 0
54 89 124 159 194 229 0
24 59 129 164 199 234 0
110 120 125 130 135 140 0
145 155 160 165 170 175 0
85 120 155 190 225 0
55 90 125 160 195 230 0